c "198286.clq"
p edge 140 544
e 1 5
e 1 6
e 1 8
e 1 9
e 1 11
e 1 25
e 1 37
e 1 42
e 1 53
e 1 55
e 1 101
e 2 5
e 2 15
e 2 112
e 2 135
e 3 5
e 3 6
e 3 7
e 3 8
e 3 12
e 3 14
e 3 15
e 3 19
e 3 21
e 3 38
e 3 69
e 3 86
e 3 89
e 4 5
e 4 6
e 4 7
e 4 8
e 4 9
e 4 10
e 4 12
e 4 13
e 4 16
e 4 19
e 4 20
e 4 21
e 4 24
e 4 25
e 4 31
e 4 32
e 4 38
e 4 43
e 4 55
e 4 69
e 4 76
e 4 95
e 4 100
e 4 102
e 4 105
e 4 114
e 4 117
e 4 123
e 4 131
e 4 133
e 5 6
e 5 7
e 5 8
e 5 9
e 5 10
e 5 11
e 5 12
e 5 14
e 5 16
e 5 17
e 5 23
e 5 24
e 5 26
e 5 29
e 5 32
e 5 34
e 5 35
e 5 39
e 5 42
e 5 50
e 5 52
e 5 55
e 5 56
e 5 57
e 5 60
e 5 61
e 5 65
e 5 77
e 5 81
e 5 90
e 5 113
e 5 115
e 5 126
e 5 127
e 5 130
e 6 7
e 6 9
e 6 11
e 6 13
e 6 16
e 6 26
e 6 29
e 6 31
e 6 39
e 6 45
e 6 57
e 6 58
e 6 65
e 6 67
e 6 71
e 6 75
e 6 77
e 6 88
e 6 90
e 6 105
e 6 134
e 6 135
e 6 138
e 7 11
e 7 14
e 7 15
e 7 18
e 7 21
e 7 31
e 7 52
e 7 72
e 7 85
e 7 96
e 7 102
e 7 108
e 7 113
e 7 116
e 7 140
e 8 10
e 8 14
e 8 17
e 8 18
e 8 19
e 8 22
e 8 27
e 8 28
e 8 30
e 8 41
e 8 50
e 8 53
e 8 62
e 8 63
e 8 78
e 8 86
e 8 116
e 8 120
e 8 129
e 9 10
e 9 12
e 9 13
e 9 24
e 9 32
e 9 36
e 9 40
e 9 44
e 9 54
e 9 60
e 9 61
e 9 64
e 9 70
e 9 76
e 9 118
e 9 124
e 9 127
e 10 17
e 10 19
e 10 22
e 10 41
e 10 58
e 10 62
e 10 66
e 10 67
e 10 69
e 10 71
e 10 77
e 10 78
e 10 79
e 10 86
e 10 90
e 10 93
e 10 100
e 10 120
e 11 13
e 11 25
e 11 30
e 11 40
e 11 42
e 11 45
e 11 62
e 11 68
e 11 80
e 11 82
e 11 85
e 11 105
e 12 25
e 12 40
e 12 46
e 12 56
e 13 15
e 13 17
e 13 22
e 13 35
e 13 56
e 13 66
e 13 67
e 13 68
e 13 95
e 13 110
e 13 119
e 14 20
e 14 21
e 14 24
e 14 28
e 14 49
e 14 51
e 14 67
e 14 71
e 14 78
e 14 83
e 14 95
e 14 96
e 14 128
e 14 137
e 15 16
e 15 18
e 15 20
e 15 23
e 15 28
e 15 30
e 15 33
e 15 39
e 15 47
e 15 54
e 15 58
e 15 63
e 15 76
e 15 83
e 15 84
e 15 94
e 15 103
e 15 114
e 15 121
e 15 122
e 16 18
e 16 26
e 16 34
e 16 43
e 16 58
e 16 61
e 16 78
e 16 106
e 16 119
e 16 125
e 16 134
e 17 27
e 17 39
e 17 51
e 17 52
e 17 87
e 17 91
e 17 101
e 17 109
e 17 116
e 18 29
e 18 33
e 18 41
e 18 44
e 18 57
e 18 59
e 18 77
e 19 20
e 19 23
e 19 31
e 19 35
e 19 37
e 19 48
e 19 49
e 19 55
e 19 63
e 19 74
e 19 87
e 19 91
e 19 94
e 19 96
e 19 118
e 20 28
e 20 29
e 20 33
e 20 40
e 20 107
e 20 117
e 21 22
e 21 26
e 21 30
e 21 56
e 21 87
e 21 110
e 21 128
e 21 137
e 21 138
e 22 23
e 22 27
e 22 36
e 22 37
e 22 63
e 22 97
e 22 99
e 22 113
e 23 36
e 23 54
e 23 94
e 23 100
e 23 133
e 24 27
e 24 32
e 24 35
e 24 53
e 24 65
e 24 92
e 24 111
e 24 114
e 24 122
e 24 136
e 24 140
e 25 46
e 25 47
e 25 119
e 26 33
e 26 34
e 26 38
e 26 45
e 26 47
e 26 48
e 26 52
e 26 88
e 26 106
e 26 111
e 26 115
e 26 136
e 27 42
e 28 46
e 28 115
e 28 124
e 28 128
e 29 34
e 29 36
e 30 49
e 30 65
e 30 66
e 31 43
e 32 37
e 32 68
e 32 70
e 32 71
e 32 75
e 32 92
e 32 102
e 32 126
e 33 49
e 33 51
e 33 54
e 33 68
e 33 84
e 33 98
e 33 129
e 34 41
e 34 48
e 34 74
e 34 122
e 35 89
e 35 106
e 35 117
e 36 45
e 36 47
e 36 51
e 36 79
e 36 96
e 36 128
e 37 38
e 37 110
e 37 113
e 38 44
e 38 74
e 38 85
e 39 80
e 40 43
e 40 44
e 40 70
e 40 91
e 40 107
e 41 98
e 42 48
e 42 86
e 42 104
e 43 46
e 43 59
e 43 110
e 43 137
e 44 50
e 44 75
e 44 127
e 45 64
e 45 100
e 45 103
e 45 109
e 45 121
e 45 127
e 45 133
e 46 57
e 46 90
e 47 59
e 47 88
e 48 62
e 48 64
e 48 73
e 48 79
e 48 94
e 48 122
e 48 123
e 49 50
e 49 66
e 50 53
e 50 61
e 50 72
e 50 114
e 50 116
e 50 138
e 51 59
e 51 60
e 51 72
e 51 97
e 51 106
e 51 130
e 51 132
e 51 135
e 52 64
e 52 82
e 52 84
e 52 102
e 53 74
e 54 73
e 54 92
e 54 109
e 54 125
e 55 72
e 56 60
e 56 93
e 56 134
e 57 80
e 57 93
e 57 97
e 57 104
e 57 140
e 58 101
e 59 81
e 59 104
e 59 108
e 60 112
e 61 120
e 62 69
e 62 101
e 63 83
e 63 108
e 63 121
e 64 73
e 64 84
e 64 105
e 64 126
e 64 129
e 64 130
e 65 89
e 65 107
e 65 138
e 66 80
e 66 92
e 66 124
e 67 70
e 67 75
e 67 82
e 67 99
e 68 82
e 69 131
e 70 83
e 70 117
e 70 124
e 71 73
e 71 118
e 73 87
e 73 98
e 73 109
e 74 76
e 74 81
e 74 85
e 74 97
e 74 98
e 75 131
e 75 133
e 76 132
e 77 79
e 77 107
e 77 118
e 78 89
e 78 134
e 78 139
e 79 91
e 79 93
e 79 99
e 79 103
e 79 111
e 79 125
e 80 81
e 80 108
e 80 111
e 80 123
e 80 139
e 81 123
e 83 137
e 84 103
e 85 88
e 85 130
e 85 132
e 86 121
e 86 131
e 89 95
e 91 140
e 94 99
e 94 126
e 95 112
e 96 120
e 98 136
e 100 115
e 101 104
e 101 129
e 106 119
e 109 112
e 110 135
e 117 132
e 124 125
e 127 139
e 131 136
e 131 139
